************************************************************************
file with basedata            : cr325_.bas
initial value random generator: 810971227
************************************************************************
projects                      :  1
jobs (incl. supersource/sink ):  18
horizon                       :  124
RESOURCES
  - renewable                 :  3   R
  - nonrenewable              :  2   N
  - doubly constrained        :  0   D
************************************************************************
PROJECT INFORMATION:
pronr.  #jobs rel.date duedate tardcost  MPM-Time
    1     16      0       19        4       19
************************************************************************
PRECEDENCE RELATIONS:
jobnr.    #modes  #successors   successors
   1        1          3           2   3   4
   2        3          3           7  13  17
   3        3          3           6   8  13
   4        3          3           5  10  15
   5        3          2          13  14
   6        3          3           9  10  11
   7        3          3           8   9  12
   8        3          1          15
   9        3          1          15
  10        3          2          12  17
  11        3          2          12  14
  12        3          1          16
  13        3          1          16
  14        3          2          16  17
  15        3          1          18
  16        3          1          18
  17        3          1          18
  18        1          0        
************************************************************************
REQUESTS/DURATIONS:
jobnr. mode duration  R 1  R 2  R 3  N 1  N 2
------------------------------------------------------------------------
  1      1     0       0    0    0    0    0
  2      1     5       0    0    7    0    4
         2     7       3    2    0    5    0
         3     8       0    0    6    5    0
  3      1     4       0    5    0   10    0
         2     6       7    0    0    0    8
         3     9       0    0    7    0    6
  4      1     6       4    0   10    5    0
         2     6       0    4    0    4    0
         3     8       0    3   10    2    0
  5      1     3       0    2    0    7    0
         2     4       9    0    0    0    4
         3    10       2    0    0    0    3
  6      1     4       0    0    4    0    4
         2     5       4    5    4    9    0
         3     8       1    4    0    8    0
  7      1     3       4    0    9    6    0
         2     8       4    0    0    0    7
         3     9       4    0    9    0    2
  8      1     4       0    6    8    5    0
         2     5       0    4    0    0    6
         3    10       5    0    0    0    3
  9      1     2       0    0    6    0    8
         2     7       0    6    0    0    7
         3    10       0    4    0    5    0
 10      1     1       4    9    4    4    0
         2     2       3    0    4    3    0
         3     3       3    0    4    0   10
 11      1     7       1    0    0    7    0
         2     9       0    0    7    7    0
         3    10       0    0    5    6    0
 12      1     2       8    3    4    0    2
         2     4       0    2    4    0    2
         3     6       7    2    2    8    0
 13      1     3       0    8    4    0    4
         2     6       7    2    0    3    0
         3     7       2    0    0    0    2
 14      1     1       5    0    9    0   10
         2     2       0    7    0    0    9
         3     7       0    0    8    0    9
 15      1     1      10    9    0    0    6
         2     1       0    0    5    4    0
         3     4       9    0    0    4    0
 16      1     2       0    0    9    8    0
         2     4       7    0    7    7    0
         3     8       3    0    6    3    0
 17      1     1       7    5    0    0    7
         2     1       0    0    2    1    0
         3     7       8    0    0    0    5
 18      1     0       0    0    0    0    0
************************************************************************
RESOURCEAVAILABILITIES:
  R 1  R 2  R 3  N 1  N 2
    9    7   11   87   80
************************************************************************
